10J3M/DAT/10J3MNLX-11.dat
10 3
31.4679 5.6096
28.8805 5.3741
23.76 4.8744
29.4596 5.4277
30.1612 5.4919
21.9942 4.6898
28.1956 5.31
37.9253 6.1584
19.5528 4.4219
27.7919 5.2718
17.5432