10J3M/SOL/10J3MNLX-11.sol
solution status: optimal solution found
objective value:                     87.7127666666667
x#1#2                                               1 	(obj:0)
x#2#1                                               1 	(obj:0)
x#3#1                                               1 	(obj:0)
x#4#1                               0.278282639265709 	(obj:0)
x#4#3                               0.721717360734292 	(obj:0)
x#5#2                               0.343257018825541 	(obj:0)
x#5#3                               0.656742981174459 	(obj:0)
x#6#2                                               1 	(obj:0)
x#7#3                                               1 	(obj:0)
x#8#1                              0.0283059549739603 	(obj:0)
x#8#2                                0.97169404502604 	(obj:0)
x#9#3                                               1 	(obj:0)
x#10#1                              0.993194707013488 	(obj:0)
x#10#3                            0.00680529298651211 	(obj:0)
z                                    87.7127666666667 	(obj:1)
